NAME: tsp20-28
TYPE: TSP
DIMENSION: 20
EDGE_WEIGHT_TYPE: EUC_2D
NODE_COORD_SECTION
0 63 84
1 93 73
2 84 9
3 48 8
4 24 93
5 80 98
6 3 73
7 66 69
8 50 44
9 39 29
10 60 34
11 62 11
12 79 10
13 14 49
14 20 30
15 67 41
16 98 0
17 70 70
18 15 30
19 48 35
EOF